CUSTOMERS : 10
VEHICLES : 5
0 228 248 112 77 268 197 195 162 224 105 
228 0 142 293 159 262 218 420 376 66 153 
248 142 0 255 214 387 331 435 409 204 144 
112 293 255 0 175 379 308 204 206 309 141 
77 159 214 175 0 218 148 261 217 148 87 
268 262 387 379 218 0 72 367 303 198 298 
197 218 331 308 148 72 0 312 250 162 230 
195 420 435 204 261 367 312 0 64 404 295 
162 376 409 206 217 303 250 64 0 353 266 
224 66 204 309 148 198 162 404 353 0 176 
105 153 144 141 87 298 230 295 266 176 0 
